\ Using Xpress-MP extensions
Maximize
 y(1) + y(2) + y(3) + y(4) + y(5) + y(6)

Subject To
_R1: 61 x(1,2) + 12 y(6) + 12 x(1,3) + 20 x(1,4) + 20 x(1,5) + 10 x(1,6) + 45 x(2,7) + 
124 x(2,8) + 12 x(3,4) + 20 x(3,8) + 81 x(4,9) + 20 x(4,13) + 112 x(5,4) + 118 x(5,6) + 
20 x(5,9) + 14 x(6,10) + 124 x(6,11) + 33 x(7,12) + 89 x(7,13) + 59 x(8,4) + 
8 x(8,12) + 20 x(9,13) + 8 x(9,15) + 31 x(10,11) + 46 x(10,14) + 14 x(11,16) + 
20 x(12,15) + 122 x(13,12) + 10 x(13,15) + 89 x(14,15) + 48 x(14,16) + 16 x(16,15) <= 85
_R2: 59 x(1,2) + 12 y(5) + 12 x(1,3) + 19 x(1,4) + 20 x(1,5) + 10 x(1,6) + 43 x(2,7) + 
120 x(2,8) + 12 x(3,4) + 20 x(3,8) + 78 x(4,9) + 20 x(4,13) + 108 x(5,4) + 114 x(5,6) + 
20 x(5,9) + 14 x(6,10) + 120 x(6,11) + 31 x(7,12) + 86 x(7,13) + 56 x(8,4) + 
8 x(8,12) + 20 x(9,13) + 8 x(9,15) + 29 x(10,11) + 45 x(10,14) + 14 x(11,16) + 
20 x(12,15) + 118 x(13,12) + 10 x(13,15) + 86 x(14,15) + 46 x(14,16) + 16 x(16,15) <= 85
_R3: 62 x(1,2) + 12 y(4) + 12 x(1,3) + 20 x(1,4) + 21 x(1,5) + 10 x(1,6) + 45 x(2,7) + 
125 x(2,8) + 12 x(3,4) + 21 x(3,8) + 82 x(4,9) + 21 x(4,13) + 113 x(5,4) + 119 x(5,6) + 
21 x(5,9) + 14 x(6,10) + 125 x(6,11) + 33 x(7,12) + 90 x(7,13) + 59 x(8,4) + 
8 x(8,12) + 21 x(9,13) + 8 x(9,15) + 31 x(10,11) + 47 x(10,14) + 14 x(11,16) + 
21 x(12,15) + 123 x(13,12) + 10 x(13,15) + 90 x(14,15) + 48 x(14,16) + 16 x(16,15) <= 85
_R4: 58 x(1,2) + 12 y(3) + 12 x(1,3) + 19 x(1,4) + 19 x(1,5) + 10 x(1,6) + 43 x(2,7) + 
118 x(2,8) + 12 x(3,4) + 19 x(3,8) + 77 x(4,9) + 19 x(4,13) + 106 x(5,4) + 112 x(5,6) + 
19 x(5,9) + 14 x(6,10) + 118 x(6,11) + 31 x(7,12) + 85 x(7,13) + 56 x(8,4) + 
8 x(8,12) + 19 x(9,13) + 8 x(9,15) + 29 x(10,11) + 44 x(10,14) + 14 x(11,16) + 
19 x(12,15) + 116 x(13,12) + 10 x(13,15) + 85 x(14,15) + 45 x(14,16) + 15 x(16,15) <= 85
_R5: 63 x(1,2) + 12 y(2) + 13 x(1,3) + 21 x(1,4) + 21 x(1,5) + 11 x(1,6) + 46 x(2,7) + 
128 x(2,8) + 13 x(3,4) + 21 x(3,8) + 84 x(4,9) + 21 x(4,13) + 116 x(5,4) + 122 x(5,6) + 
21 x(5,9) + 15 x(6,10) + 128 x(6,11) + 34 x(7,12) + 92 x(7,13) + 60 x(8,4) + 
8 x(8,12) + 21 x(9,13) + 8 x(9,15) + 32 x(10,11) + 48 x(10,14) + 15 x(11,16) + 
21 x(12,15) + 126 x(13,12) + 11 x(13,15) + 92 x(14,15) + 49 x(14,16) + 17 x(16,15) <= 85
_R6: 54 x(1,2) + 12 y(1) + 11 x(1,3) + 18 x(1,4) + 18 x(1,5) + 9 x(1,6) + 40 x(2,7) + 
110 x(2,8) + 11 x(3,4) + 18 x(3,8) + 72 x(4,9) + 18 x(4,13) + 99 x(5,4) + 104 x(5,6) + 
18 x(5,9) + 13 x(6,10) + 110 x(6,11) + 29 x(7,12) + 79 x(7,13) + 52 x(8,4) + 
7 x(8,12) + 18 x(9,13) + 7 x(9,15) + 27 x(10,11) + 41 x(10,14) + 13 x(11,16) + 
18 x(12,15) + 108 x(13,12) + 9 x(13,15) + 79 x(14,15) + 42 x(14,16) + 14 x(16,15) <= 85
timeConstrain: 50 x(1,2) + 50 x(1,3) + 150 x(1,4) + 65 x(1,5) + 110 x(1,6) + 
70 x(2,7) + 185 x(2,8) + 85 x(3,4) + 100 x(3,8) + 270 x(4,9) + 150 x(4,13) + 
340 x(5,4) + 205 x(5,6) + 100 x(5,9) + 75 x(6,10) + 192 x(6,11) + 70 x(7,12) + 
150 x(7,13) + 100 x(8,4) + 100 x(8,12) + 100 x(9,13) + 375 x(9,15) + 60 x(10,11) + 
75 x(10,14) + 120 x(11,16) + 255 x(12,15) + 150 x(13,12) + 230 x(13,15) + 225 x(14,15) + 
75 x(14,16) + 120 x(16,15) <= 500
_R8: -x(11,16) - x(14,16) + x(16,15) = 0
_R9: -x(10,14) + x(14,15) + x(14,16) = 0
_R10: -x(4,13) - x(7,13) - x(9,13) + x(13,12) + x(13,15) = 0
_R11: -x(7,12) - x(8,12) + x(12,15) - x(13,12) = 0
_R12: -x(6,11) - x(10,11) + x(11,16) = 0
_R13: -x(6,10) + x(10,11) + x(10,14) = 0
_R14: -x(4,9) - x(5,9) + x(9,13) + x(9,15) = 0
_R15: -x(2,8) - x(3,8) + x(8,4) + x(8,12) = 0
_R16: -x(2,7) + x(7,12) + x(7,13) = 0
_R17: -x(1,6) - x(5,6) + x(6,10) + x(6,11) = 0
_R18: -x(1,5) + x(5,4) + x(5,6) + x(5,9) = 0
_R19: -x(1,4) - x(3,4) + x(4,9) + x(4,13) - x(5,4) - x(8,4) = 0
_R20: -x(1,3) + x(3,4) + x(3,8) = 0
_R21: -x(1,2) + x(2,7) + x(2,8) = 0
_R22: x(9,15) + x(12,15) + x(13,15) + x(14,15) + x(16,15) = 1
_R23: x(1,2) + x(1,3) + x(1,4) + x(1,5) + x(1,6) = 1

Bounds

Binaries
x(1,2) y(1) y(2) y(3) y(4) y(5) y(6) x(1,3) x(1,4) x(1,5) x(1,6) x(2,7) x(2,8) 
x(3,4) x(3,8) x(4,9) x(4,13) x(5,4) x(5,6) x(5,9) x(6,10) x(6,11) x(7,12) x(7,13) 
x(8,4) x(8,12) x(9,13) x(9,15) x(10,11) x(10,14) x(11,16) x(12,15) x(13,12) 
x(13,15) x(14,15) x(14,16) x(16,15) 

End
